NAME : Tai75b.1344617.tour
COMMENT : Length = 1344617
COMMENT : Found by LKH [Keld Helsgaun] Tue May  8 14:19:38 2018
TYPE : TOUR
DIMENSION : 85
TOUR_SECTION
1
5
85
2
12
8
79
3
6
76
73
16
10
83
7
45
38
50
55
43
40
52
81
15
47
48
33
19
17
24
41
82
4
53
39
20
46
42
72
78
37
71
69
60
63
61
58
59
62
57
56
70
13
11
75
80
34
31
23
22
28
21
30
26
36
29
32
18
25
35
27
84
14
44
51
49
77
54
66
65
68
67
64
74
9
-1
EOF
